ws_caric/src/star_planner/utils/lkh_tsp_solver/resource/raffles_single.tsp
NAME : single
TYPE : ATSP
DIMENSION : 7
EDGE_WEIGHT_TYPE : EXPLICIT
EDGE_WEIGHT_FORMAT : FULL_MATRIX
EDGE_WEIGHT_SECTION
0 445 465 451 534 511 0 
100000 0 337 330 288 160 200000 
100000 337 0 59 438 424 200000 
100000 330 59 0 527 501 200000 
100000 288 438 527 0 155 200000 
100000 160 424 501 155 0 200000 
0 100000 100000 100000 100000 100000 0 
EOF